n_res = 4;
rc = [ 18, 13, 16, 14 ];
n_tasks = 30;
d = [ 2, 8, 7, 8, 3, 5, 9, 7, 8, 8, 4, 10, 5, 7, 10, 3, 1, 1, 7, 8, 4, 1, 1, 2, 2, 4, 8, 1, 2, 3 ];
rr = [| 7, 0, 1, 8, 6, 3, 0, 7, 10, 6, 6, 8, 4, 4, 8, 10, 2, 0, 4, 9, 10, 0, 9, 7, 0, 7, 4, 2, 3, 0
      | 3, 6, 4, 0, 2, 5, 0, 7, 10, 4, 6, 6, 0, 0, 8, 0, 6, 8, 4, 0, 3, 0, 0, 0, 2, 6, 0, 9, 0, 2
      | 5, 0, 8, 10, 0, 0, 10, 10, 8, 0, 7, 6, 10, 2, 5, 4, 5, 8, 7, 6, 7, 7, 0, 8, 5, 7, 9, 4, 1, 0
      | 0, 3, 5, 0, 7, 4, 3, 4, 0, 1, 4, 0, 7, 0, 2, 8, 5, 10, 4, 9, 0, 9, 3, 7, 7, 8, 2, 10, 4, 1 |];
suc = [ { 2 }, 
        { 3 }, 
        { 4 }, 
        { 5 }, 
        { 6 }, 
        { 7 }, 
        { 8 }, 
        { 9 }, 
        { 10 }, 
        { 11 }, 
        { 12 }, 
        { 13 }, 
        { 14 }, 
        { 15 }, 
        { 16 }, 
        { 17 }, 
        { 18 }, 
        { 19 }, 
        { 20 }, 
        { 21 }, 
        { 22 }, 
        { 23 }, 
        { 24 }, 
        { 25 }, 
        { 26 }, 
        { 27 }, 
        { 28 }, 
        { 29 }, 
        { 30 }, 
        {  }]; 
